robust/generate/spp_dkp_Lefebvre_et_al_2026/src/shortest_path_7_6.kp
48
152

[0.08 3.99 1.27 1.34 3.54 1.45 3.87 2.0 2.45 1.6 0.5 0.63 1.99 3.27 2.06 2.65 1.51 2.03 0.84 1.83 0.59 0.17 0.37 0.95 2.44 2.93 2.63 2.57 1.5 1.7 1.8 3.04 0.65 3.53]

[51 25 23 10 33 67 78 75 83 33 49 92 36 9 83 63 48 74 13 86 27 42 22 74 83 26 11 21 44 78 8 31 92 89]
